Minimize
  - 5 y_0 - 95 y_1 - 57 y_2 - 69 y_3 - 98 y_4 - 83 y_5 - 51 y_6 - 42 y_7
   - 38 y_8 - 55 y_9 - 74 y_10 - 119 y_11 - 58 y_12 - 66 y_13 - 98 y_14
   - 40 y_15 - 90 y_16 - 24 y_17 - 50 y_18 - 88 y_19 - 94 y_20 - 35 y_21
   - 53 y_22 - 93 y_23 - 67 y_24 - 85 y_25 - 97 y_26 - 27 y_27 - 68 y_28
   - 46 y_29 - 81 y_30 - 67 y_31 - 100 y_32 - 81 y_33 - 75 y_34 - 54 y_35
   - 118 y_36 - 48 y_37 - 75 y_38 - 110 y_39 - 59 y_41 - 42 y_42 - 69 y_43
   - 45 y_44 - 104 y_45 - 83 y_46 - 12 y_47 - 23 y_48 - 27 y_49 - 78 y_50
   - 100 y_51 - 83 y_52 - 49 y_53 - 31 y_54 - 89 y_55 - 84 y_56 - 60 y_57
   - 92 y_58 - 74 y_59 - 108 y_60 - 100 y_61 - 84 y_62 - 57 y_63 - 97 y_64
   - 84 y_65 - 62 y_66 - 111 y_67 - 15 y_68 - 49 y_69 - 71 y_70 - 47 y_71
   - 111 y_72 - 123 y_73 - 31 y_74 - 17 y_75 - 87 y_76 - 69 y_77 - 34 y_78
   - 21 y_79 - 39 y_80 - 116 y_81 - 96 y_82 - 31 y_83 - 75 y_84 - 88 y_85
   - 72 y_86 - 79 y_87 - 108 y_88 - 93 y_89 - 69 y_90 - 116 y_91 - 90 y_92
   - 98 y_93 - 111 y_94 - 85 y_95 - 91 y_96 - 33 y_97 - 9 y_98 - 97 y_99
   + 6952 Constant
Subject To
 c_0: y_19 = 1
 c_1_0: y_0 + y_40 + y_47 + y_98 >= 1
 c_1_1: y_1 + y_76 >= 1
 c_1_2: y_2 + y_9 >= 1
 c_1_3: y_3 + y_24 >= 1
 c_1_4: y_4 + y_16 + y_45 >= 1
 c_1_5: y_5 + y_19 + y_34 + y_46 + y_50 + y_87 >= 1
 c_1_6: y_6 + y_63 + y_69 >= 1
 c_1_7: y_7 + y_80 >= 1
 c_1_8: y_8 + y_21 + y_44 + y_54 >= 1
 c_1_9: y_2 + y_9 >= 1
 c_1_10: y_10 + y_13 + y_31 + y_38 >= 1
 c_1_11: y_11 + y_36 + y_39 + y_72 + y_73 + y_81 >= 1
 c_1_12: y_12 >= 1
 c_1_13: y_10 + y_13 + y_24 + y_31 >= 1
 c_1_14: y_14 >= 1
 c_1_15: y_15 + y_37 + y_71 + y_78 + y_83 + y_97 >= 1
 c_1_16: y_4 + y_16 >= 1
 c_1_17: y_17 + y_48 + y_54 + y_74 >= 1
 c_1_18: y_18 + y_22 >= 1
 c_1_19: y_5 + y_19 + y_23 + y_26 + y_46 + y_87 >= 1
 c_1_20: y_20 + y_32 + y_58 + y_95 + y_99 >= 1
 c_1_21: y_8 + y_21 + y_74 >= 1
 c_1_22: y_18 + y_22 >= 1
 c_1_23: y_19 + y_23 + y_26 + y_51 + y_61 + y_89 >= 1
 c_1_24: y_3 + y_13 + y_24 >= 1
 c_1_25: y_25 + y_58 + y_62 >= 1
 c_1_26: y_19 + y_23 + y_26 + y_51 + y_61 >= 1
 c_1_27: y_27 + y_75 + y_78 + y_79 + y_83 + y_97 >= 1
 c_1_28: y_28 + y_43 + y_57 + y_90 >= 1
 c_1_29: y_29 >= 1
 c_1_30: y_30 + y_56 >= 1
 c_1_31: y_10 + y_13 + y_31 + y_38 + y_41 + y_43 + y_90 >= 1
 c_1_32: y_20 + y_32 + y_99 >= 1
 c_1_33: y_33 >= 1
 c_1_34: y_5 + y_34 + y_46 + y_50 + y_86 + y_87 >= 1
 c_1_35: y_35 + y_37 + y_53 + y_57 + y_71 >= 1
 c_1_36: y_11 + y_36 + y_39 + y_72 + y_73 + y_81 >= 1
 c_1_37: y_15 + y_35 + y_37 + y_53 + y_71 >= 1
 c_1_38: y_10 + y_31 + y_38 + y_43 + y_52 + y_90 >= 1
 c_1_39: y_11 + y_36 + y_39 + y_45 + y_72 + y_81 >= 1
 c_1_40: y_0 + y_40 + y_98 >= 1
 c_1_41: y_31 + y_41 >= 1
 c_1_42: y_42 >= 1
 c_1_43: y_28 + y_31 + y_38 + y_43 + y_90 >= 1
 c_1_44: y_8 + y_44 + y_69 >= 1
 c_1_45: y_4 + y_39 + y_45 + y_94 >= 1
 c_1_46: y_5 + y_19 + y_34 + y_46 + y_50 + y_87 >= 1
 c_1_47: y_0 + y_47 + y_75 >= 1
 c_1_48: y_17 + y_48 + y_54 >= 1
 c_1_49: y_49 >= 1
 c_1_50: y_5 + y_34 + y_46 + y_50 + y_56 + y_86 + y_87 >= 1
 c_1_51: y_23 + y_26 + y_51 + y_60 + y_61 + y_67 + y_88 >= 1
 c_1_52: y_38 + y_52 + y_76 + y_95 >= 1
 c_1_53: y_35 + y_37 + y_53 + y_71 >= 1
 c_1_54: y_8 + y_17 + y_48 + y_54 >= 1
 c_1_55: y_55 + y_65 + y_85 >= 1
 c_1_56: y_30 + y_50 + y_56 + y_87 + y_89 >= 1
 c_1_57: y_28 + y_35 + y_57 >= 1
 c_1_58: y_20 + y_25 + y_58 + y_99 >= 1
 c_1_59: y_59 + y_77 >= 1
 c_1_60: y_51 + y_60 + y_61 + y_67 + y_88 + y_91 >= 1
 c_1_61: y_23 + y_26 + y_51 + y_60 + y_61 + y_64 + y_88 + y_89 + y_93 >= 1
 c_1_62: y_25 + y_62 + y_92 >= 1
 c_1_63: y_6 + y_63 + y_66 + y_69 >= 1
 c_1_64: y_61 + y_64 + y_89 + y_93 >= 1
 c_1_65: y_55 + y_65 >= 1
 c_1_66: y_63 + y_66 >= 1
 c_1_67: y_51 + y_60 + y_67 + y_88 + y_91 >= 1
 c_1_68: y_68 >= 1
 c_1_69: y_6 + y_44 + y_63 + y_69 >= 1
 c_1_70: y_70 >= 1
 c_1_71: y_15 + y_35 + y_37 + y_53 + y_71 >= 1
 c_1_72: y_11 + y_36 + y_39 + y_72 + y_81 >= 1
 c_1_73: y_11 + y_36 + y_73 >= 1
 c_1_74: y_17 + y_21 + y_74 >= 1
 c_1_75: y_27 + y_47 + y_75 + y_79 >= 1
 c_1_76: y_1 + y_52 + y_76 + y_95 >= 1
 c_1_77: y_59 + y_77 >= 1
 c_1_78: y_15 + y_27 + y_78 + y_83 + y_97 >= 1
 c_1_79: y_27 + y_75 + y_79 + y_83 >= 1
 c_1_80: y_7 + y_80 + y_97 >= 1
 c_1_81: y_11 + y_36 + y_39 + y_72 + y_81 >= 1
 c_1_82: y_82 + y_96 >= 1
 c_1_83: y_15 + y_27 + y_78 + y_79 + y_83 + y_97 >= 1
 c_1_84: y_84 >= 1
 c_1_85: y_55 + y_85 >= 1
 c_1_86: y_34 + y_50 + y_86 + y_87 >= 1
 c_1_87: y_5 + y_19 + y_34 + y_46 + y_50 + y_56 + y_86 + y_87 >= 1
 c_1_88: y_51 + y_60 + y_61 + y_67 + y_88 + y_91 >= 1
 c_1_89: y_23 + y_56 + y_61 + y_64 + y_89 + y_93 >= 1
 c_1_90: y_28 + y_31 + y_38 + y_43 + y_90 >= 1
 c_1_91: y_60 + y_67 + y_88 + y_91 >= 1
 c_1_92: y_62 + y_92 >= 1
 c_1_93: y_61 + y_64 + y_89 + y_93 >= 1
 c_1_94: y_45 + y_94 >= 1
 c_1_95: y_20 + y_52 + y_76 + y_95 >= 1
 c_1_96: y_82 + y_96 >= 1
 c_1_97: y_15 + y_27 + y_78 + y_80 + y_83 + y_97 >= 1
 c_1_98: y_0 + y_40 + y_98 >= 1
 c_1_99: y_20 + y_32 + y_58 + y_99 >= 1
Bounds
 Constant = 1
Binaries
 y_0 y_1 y_2 y_3 y_4 y_5 y_6 y_7 y_8 y_9 y_10 y_11 y_12 y_13 y_14 y_15 y_16
 y_17 y_18 y_19 y_20 y_21 y_22 y_23 y_24 y_25 y_26 y_27 y_28 y_29 y_30 y_31
 y_32 y_33 y_34 y_35 y_36 y_37 y_38 y_39 y_40 y_41 y_42 y_43 y_44 y_45 y_46
 y_47 y_48 y_49 y_50 y_51 y_52 y_53 y_54 y_55 y_56 y_57 y_58 y_59 y_60 y_61
 y_62 y_63 y_64 y_65 y_66 y_67 y_68 y_69 y_70 y_71 y_72 y_73 y_74 y_75 y_76
 y_77 y_78 y_79 y_80 y_81 y_82 y_83 y_84 y_85 y_86 y_87 y_88 y_89 y_90 y_91
 y_92 y_93 y_94 y_95 y_96 y_97 y_98 y_99
End
